solution status: gap limit reached
objective value:                          34201.95653
y#11                                                1 	(obj:5700)
y#22                                                1 	(obj:5700)
y#32                                                1 	(obj:5700)
y#33                                                1 	(obj:5700)
y#36                                                1 	(obj:5700)
y#41                                                1 	(obj:5700)
x#1#36                                              1 	(obj:0.03451)
x#2#36                                              1 	(obj:0.02788)
x#3#36                                              1 	(obj:0.01615)
x#4#32                                              1 	(obj:0.00085)
x#5#33                                              1 	(obj:0.03519)
x#6#11                                              1 	(obj:0.02176)
x#7#33                                              1 	(obj:0.02533)
x#8#32                                              1 	(obj:0.02635)
x#9#36                              0.999999999999999 	(obj:0.0204)
x#10#33                                             1 	(obj:0.02193)
x#11#32                                             1 	(obj:0.01955)
x#12#22                                             1 	(obj:0.03774)
x#13#41                                             1 	(obj:0.05253)
x#14#32                                             1 	(obj:0.02414)
x#15#22                                             1 	(obj:0.01972)
x#16#22                                             1 	(obj:0.05185)
x#17#11                                             1 	(obj:0.03944)
x#18#22                                             1 	(obj:0.05763)
x#19#32                                             1 	(obj:0.01785)
x#20#32                                             1 	(obj:0.00663)
x#21#41                                             1 	(obj:0.03978)
x#22#41                                             1 	(obj:0.07701)
x#23#41                                             1 	(obj:0.04879)
x#24#11                                             1 	(obj:0.0374)
x#25#11                                             1 	(obj:0.00714)
x#26#22                                             1 	(obj:0.00119)
x#27#41                                             1 	(obj:0.00782)
x#28#22                                             1 	(obj:0.01258)
x#29#41                                             1 	(obj:0.04267)
x#30#11                                             1 	(obj:0.01309)
x#31#33                                             1 	(obj:0.02686)
x#32#36                                             1 	(obj:0.05321)
x#33#32                                             1 	(obj:0.02006)
x#34#33                                             1 	(obj:0.02686)
x#35#11                                             1 	(obj:0.02635)
x#36#32                                             1 	(obj:0.03111)
x#37#11                                             1 	(obj:0.03281)
x#38#36                                             1 	(obj:0.02975)
x#39#41                                             1 	(obj:0.0272)
x#40#36                                             1 	(obj:0.04913)
x#41#32                                             1 	(obj:0.00969)
x#42#11                                             1 	(obj:0.01547)
x#43#22                                             1 	(obj:0.02397)
x#44#41                                             1 	(obj:0.02159)
x#45#33                                             1 	(obj:0.03094)
x#46#11                                             1 	(obj:0.00765)
x#47#33                                             1 	(obj:0.02074)
x#48#36                                             1 	(obj:0.02805)
x#49#33                                             1 	(obj:0.03162)
x#50#33                                             1 	(obj:0.03502)
x#51#41                                             1 	(obj:0.05032)
x#52#32                                             1 	(obj:0.01377)
x#53#36                                             1 	(obj:0.01394)
x#54#22                                             1 	(obj:0.09758)
x#55#33                                             1 	(obj:0.02159)
x#56#33                                             1 	(obj:0.03502)
x#57#41                                             1 	(obj:0.04964)
x#58#36                                             1 	(obj:0.00323)
x#59#36                                             1 	(obj:0.00289)
x#60#22                                             1 	(obj:0.00782)
x#61#33                                             1 	(obj:0.04301)
x#62#22                                             1 	(obj:0.01207)
x#63#22                                             1 	(obj:0.02669)
x#64#32                                             1 	(obj:0.01819)
x#65#41                                             1 	(obj:0.08364)
x#66#11                                             1 	(obj:0.00833)
x#67#32                                             1 	(obj:0.00357)
x#68#11                                             1 	(obj:0.00935)
x#69#22                                             1 	(obj:0.03706)
x#70#36                                             1 	(obj:0.02584)
